job_count = 12 ;
duration = [|29, 15, 14, 5|23, 15, 3, 6|4, 9, 12, 6|21, 22, 13, 4|11, 11, 18, 8|37, 28, 3, 1|15, 29, 3, 1|4, 28, 15, 3|38, 8, 3, 7|20, 5, 17, 3|12, 14, 8, 4|23, 16, 6, 6|] ;
machine_count = 4 ;
cost = [|17, 32, 36, 51|19, 28, 44, 63|19, 25, 30, 47|18, 30, 59, 43|17, 32, 54, 42|16, 21, 31, 57|12, 38, 49, 67|14, 23, 44, 58|16, 36, 32, 48|19, 24, 47, 73|16, 32, 46, 42|19, 31, 51, 70|] ;
deadline = [25, 25, 25, 25, 25, 25, 25, 25, 25, 25, 25, 25] ;
release = [0, 0, 0, 0, 0, 0, 0, 0, 0, 0, 0, 0] ;
resource = [|9, 9, 9, 9|9, 9, 9, 9|6, 6, 6, 6|6, 6, 6, 6|3, 3, 3, 3|5, 5, 5, 5|2, 2, 2, 2|4, 4, 4, 4|5, 5, 5, 5|7, 7, 7, 7|2, 2, 2, 2|4, 4, 4, 4|] ;
capacities = [10, 10, 10, 10] ;
